36.7
20
6.4 4.1
9.3 1
10.8 8.9
11.3 5.4
25.1 15.1
7.3 3.9
8.1 5.7
2.3 2.7
1.4 4.3
5.8 4.6
5.3 5.9
1.2 2.1
4.4 7.4
9.2 4.1
4.8 5.4
2.7 7.2
1.1 7.1
6.5 5.6
8.4 4.7
6.5 5.6
2
1 1 0 1 0 0 0 0 0 1 1 0 1 1 1 1 0 0 1 0
0 1 0 0 1 1 0 1 1 0 1 1 1 0 0 1 0 1 0 1